(set-info :status unsat)
(declare-datatypes ((T 0)) ((
  (f0)
  (f1 (proj0f1 T) (proj1f1 T) (proj2f1 T))
  (f2 (proj0f2 T) (proj1f2 T) (proj2f2 T))
  (f3 (proj0f3 T)))))
(assert (exists ((y8812 T) (y8811 T) (y8810 T) (y8804 T) (y8805 T) (y8807 T) (y8800 T) (y8801 T) (y8802 T) (y8803 T) (y8797 T)) (forall ((x8818 T) (x8822 T) (x8816 T) (x8817 T) (x8821 T) (x8820 T)) 
  (or 
    (and (= y8797 (f3 x8820)) (= x8820 (f3 x8817)) (= x8817 x8822)) 
    (and (= y8800 (f2 y8801 (f2 PLACEHOLDER PLACEHOLDER PLACEHOLDER) (f3 PLACEHOLDER))) (= y8801 (f3 y8802)) (= y8802 (f2 y8803 (f1 (f3 PLACEHOLDER) PLACEHOLDER (f1 PLACEHOLDER PLACEHOLDER PLACEHOLDER)) (f1 (f2 PLACEHOLDER PLACEHOLDER PLACEHOLDER) (f1 PLACEHOLDER PLACEHOLDER PLACEHOLDER) (f1 PLACEHOLDER PLACEHOLDER PLACEHOLDER)))) (= y8803 (f2 y8804 PLACEHOLDER (f2 PLACEHOLDER PLACEHOLDER PLACEHOLDER))) (= y8804 (f3 y8800))) 
    (and (= y8805 (f3 (f1 x8821 (f2 (f2 PLACEHOLDER PLACEHOLDER PLACEHOLDER) PLACEHOLDER PLACEHOLDER) PLACEHOLDER))) (= x8821 (f1 y8807 PLACEHOLDER (f1 PLACEHOLDER PLACEHOLDER PLACEHOLDER))) (= y8807 (f2 y8805 y8805 PLACEHOLDER))) 
    (and (= x8818 (f2 x8816 (f2 (f3 (f2 x8818 PLACEHOLDER PLACEHOLDER)) PLACEHOLDER PLACEHOLDER) (f1 (f1 PLACEHOLDER PLACEHOLDER PLACEHOLDER) PLACEHOLDER (f3 PLACEHOLDER)))) (= x8816 (f2 y8810 (f1 PLACEHOLDER (f1 (f2 PLACEHOLDER PLACEHOLDER PLACEHOLDER) PLACEHOLDER PLACEHOLDER) PLACEHOLDER) (f1 (f2 (f3 PLACEHOLDER) PLACEHOLDER (f3 PLACEHOLDER)) (f2 PLACEHOLDER (f1 PLACEHOLDER PLACEHOLDER PLACEHOLDER) (f2 PLACEHOLDER PLACEHOLDER PLACEHOLDER)) (f2 (f3 PLACEHOLDER) (f3 PLACEHOLDER) PLACEHOLDER)))) (= y8810 (f3 y8811)) (= y8811 (f1 y8812 PLACEHOLDER PLACEHOLDER)) (= y8812 (f3 x8818)))))))
(check-sat)
